original problem has 200 variables (200 bin, 0 int, 0 impl, 0 cont) and 17013 constraints
1/1 feasible solution given by solution candidate storage, new primal bound -6.900000e+01

presolving:
   (0.1s) running MILP presolver
   (0.1s) MILP presolver (2 rounds): 0 aggregations, 0 fixings, 0 bound changes
(round 1, exhaustive) 0 del vars, 16 del conss, 0 add conss, 0 chg bounds, 0 chg sides, 0 chg coeffs, 0 upgd conss, 0 impls, 246 clqs
(round 2, exhaustive) 0 del vars, 16 del conss, 0 add conss, 0 chg bounds, 0 chg sides, 0 chg coeffs, 16981 upgd conss, 0 impls, 246 clqs
   (0.3s) probing: 51/200 (25.5%) - 0 fixings, 0 aggregations, 0 implications, 0 bound changes
   (0.3s) probing aborted: 50/50 successive totally useless probings
presolving (3 rounds: 3 fast, 3 medium, 3 exhaustive):
 0 deleted vars, 16 deleted constraints, 0 added constraints, 0 tightened bounds, 0 added holes, 0 changed sides, 0 changed coefficients
 0 implications, 246 cliques
presolved problem has 200 variables (200 bin, 0 int, 0 impl, 0 cont) and 16997 constraints
    246 constraints of type <setppc>
     16 constraints of type <linear>
  16735 constraints of type <logicor>
transformed objective value is always integral (scale: 1)
Presolving Time: 0.32
transformed 1/1 original solutions to the transformed problem space

 time | node  | left  |LP iter|LP it/n|mem/heur|mdpt |vars |cons |rows |cuts |sepa|confs|strbr|  dualbound   | primalbound  |  gap   | compl. 
  0.6s|     1 |     0 |   723 |     - |    66M |   0 | 200 |  16k|  16k|   0 |  0 |   0 |   0 |-1.212222e+02 |-6.900000e+01 |  75.68%| unknown
  0.6s|     1 |     2 |   723 |     - |    66M |   0 | 200 |  16k|  16k|   0 |  1 |   0 |   0 |-1.212222e+02 |-6.900000e+01 |  75.68%| unknown

SCIP Status        : solving was interrupted [node limit reached]
Solving Time (sec) : 0.56
Solving Nodes      : 1
Primal Bound       : -6.90000000000000e+01 (1 solutions)
Dual Bound         : -1.21222222222222e+02
Gap                : 75.68 %
wrote problem to file /mnt/lscratch/users/dferrario/Adaptive-Cutsel-MILP/TransformedInstances/2club200v15p5scn__trans__seed__1.mps
